0 48 49
1 48 49
2 47 49
3 35 53
4 49 51
5 47 50
6 42 49
7 31 48
8 29 46
9 45 45
10 35 42
11 20 41
12 25 35
13 29 35
14 21 34
15 21 34
16 18 31
17 20 27
18 25 26
19 24 28
20 16 25
21 19 22
22 16 19
23 18 18
24 11 17
25 14 16
26 12 15
27 13 15
28 12 15
29 12 12
30 11 14
31 9 13
32 10 14
33 12 12
34 7 8
35 8 8
36 3 8
37 2 6
38 5 5
39 2 4
40 2 3
41 1 1

